2025-09-15 03:51:10,583 | INFO | Logging to Demo5\scheduler_run.log
2025-09-15 03:51:10,607 | INFO | ===== SCHEDULER RUN 20250915_035110 =====
2025-09-15 03:51:10,652 | INFO | Args.case=C:\Users\sapper\AppData\Local\Temp\tmpxd0fcbs8.json
2025-09-15 03:51:10,730 | INFO | Loaded case with 31 days, 308 shifts, 19 providers
2025-09-15 03:51:10,773 | INFO | Run config: out=Demo5 k=4 seed=1234 time=1500 L=50
2025-09-15 03:51:10,819 | INFO | Wrote: Demo5\constants_effective.log
2025-09-15 03:51:10,830 | INFO | Wrote capacity snapshot: Demo5\eligibility_capacity.json
2025-09-15 03:51:10,844 | INFO | Instance: |days|=31 |shifts|=308 |providers|=19 |types|=10
2025-09-15 03:51:10,854 | INFO | Weekend names: ['Saturday', 'Sunday']
2025-09-15 03:51:11,000 | INFO | Weekend indices: [3, 4, 10, 11, 17, 18, 24, 25]
2025-09-15 03:51:11,073 | INFO | Shift[0] keys: ['id', 'date', 'type', 'start', 'end', 'allowed_provider_types']
2025-09-15 03:51:11,184 | INFO | Provider[0] keys: ['id', 'name', 'type', 'weekday_pref', 'type_pref', 'requested_off_soft', 'preferred_days_soft', 'forbidden_days_hard', 'limits', 'preferred_days_hard', 'max_consecutive_days', 'forbidden_days_soft']
2025-09-15 03:51:11,314 | INFO | Provider types: ['MD', 'MD2']
2025-09-15 03:51:12,037 | INFO | max_consecutive_days per provider (0 means no cap): [12, 6, 31, 9, 5, 10, 31, 31, 8, 31, 31, 6, 31, 7, 31, 20, 31, 8, 2]
2025-09-15 03:51:20,216 | INFO | 0
2025-09-15 03:51:20,248 | INFO | 1
2025-09-15 03:51:20,383 | INFO | 2
2025-09-15 03:51:20,529 | INFO | 3
2025-09-15 03:51:20,667 | INFO | 4
2025-09-15 03:51:20,837 | INFO | 5
2025-09-15 03:51:21,074 | INFO | 6
2025-09-15 03:51:21,495 | INFO | 7
2025-09-15 03:51:21,777 | INFO | 8
2025-09-15 03:51:21,969 | INFO | 9
2025-09-15 03:51:22,136 | INFO | 10
2025-09-15 03:51:22,321 | INFO | 11
2025-09-15 03:51:22,503 | INFO | 12
2025-09-15 03:51:22,629 | INFO | 13
2025-09-15 03:51:22,730 | INFO | 14
2025-09-15 03:51:22,880 | INFO | 15
2025-09-15 03:51:23,060 | INFO | 16
2025-09-15 03:51:23,190 | INFO | 17
2025-09-15 03:51:23,301 | INFO | 18
2025-09-15 03:51:23,647 | INFO | Phase-1 solve: time=120.0s workers=8
2025-09-15 03:51:23,983 | INFO | [phase1] 
2025-09-15 03:51:24,110 | INFO | [phase1] Starting CP-SAT solver v9.14.6206
2025-09-15 03:51:24,333 | INFO | [phase1] Parameters: max_time_in_seconds: 120 log_search_progress: true num_search_workers: 8 log_to_stdout: false
2025-09-15 03:51:24,950 | INFO | [phase1] 
2025-09-15 03:51:25,528 | INFO | [phase1] Initial optimization model '': (model_fingerprint: 0x116820da94933b9c)
#Variables: 9'877 (#ints: 1 in objective) (6'240 primary variables)
  - 7'348 Booleans in [0,1]
  - 19 in [-31,31]
  - 1'216 in [0,31]
  - 19 in [0,308]
  - 589 in [0,961]
  - 76 in [0,1000]
  - 608 in [0,29791]
  - 1 in [0,1000000000000000000]
  - 1 constants in {0} 
#kAtMostOne: 34'713 (#literals: 69'426)
#kIntProd: 1'178
#kLinMax: 38 (#expressions: 627)
#kLinear1: 4'094 (#enforced: 1'767 #multi: 570)
#kLinear2: 8'228 (#enforced: 1'159 #multi: 570)
#kLinear3: 571
#kLinearN: 976 (#terms: 26'986)
2025-09-15 03:51:25,661 | INFO | [phase1] 
2025-09-15 03:51:25,888 | INFO | [phase1] Starting presolve at 1.91s
2025-09-15 03:51:27,904 | INFO | [phase1]   4.29e-02s  0.00e+00d  [DetectDominanceRelations]
2025-09-15 03:51:27,962 | INFO | [phase1]   1.43e+00s  0.00e+00d  [operations_research::sat::CpModelPresolver::PresolveToFixPoint] #num_loops=3 #num_dual_strengthening=2
2025-09-15 03:51:28,052 | INFO | [phase1]   8.01e-02s  0.00e+00d  [operations_research::sat::CpModelPresolver::ExtractEncodingFromLinear] #potential_supersets=12'718
2025-09-15 03:51:28,225 | INFO | [phase1]   1.01e-02s  0.00e+00d  [operations_research::sat::CpModelPresolver::DetectDuplicateColumns]
2025-09-15 03:51:28,320 | INFO | [phase1]   9.37e-02s  0.00e+00d  [operations_research::sat::CpModelPresolver::DetectDuplicateConstraints] #duplicates=403
2025-09-15 03:51:28,427 | INFO | [phase1] [SAT presolve] num removable Booleans: 0 / 5020
2025-09-15 03:51:28,453 | INFO | [phase1] [SAT presolve] num trivial clauses: 0
2025-09-15 03:51:28,457 | INFO | [phase1] [SAT presolve] [0s] clauses:5867 literals:15515 vars:4712 one_side_vars:2 simple_definition:4106 singleton_clauses:0
2025-09-15 03:51:28,462 | INFO | [phase1] [SAT presolve] [0.0348353s] clauses:5867 literals:15515 vars:4712 one_side_vars:2 simple_definition:4106 singleton_clauses:0
2025-09-15 03:51:28,473 | INFO | [phase1] [SAT presolve] [0.0459882s] clauses:5867 literals:15515 vars:4712 one_side_vars:2 simple_definition:4106 singleton_clauses:0
2025-09-15 03:51:29,659 | INFO | [phase1]   2.22e-02s  0.00e+00d  [operations_research::sat::CpModelPresolver::DetectDuplicateConstraintsWithDifferentEnforcements]
2025-09-15 03:51:29,670 | INFO | [phase1]   1.17e+00s  2.57e-02d  [operations_research::sat::CpModelPresolver::Probe] #probed=13'584 #new_bounds=608 #new_binary_clauses=1'758
2025-09-15 03:51:29,860 | INFO | [phase1]   1.51e-01s  4.06e-03d  [MaxClique] Merged 16'708(33'416 literals) into 2'686(10'828 literals) at_most_ones.
2025-09-15 03:51:30,296 | INFO | [phase1]   2.61e-02s  0.00e+00d  [DetectDominanceRelations]
2025-09-15 03:51:30,348 | INFO | [phase1]   3.47e-01s  0.00e+00d  [operations_research::sat::CpModelPresolver::PresolveToFixPoint] #num_loops=2 #num_dual_strengthening=1
2025-09-15 03:51:30,373 | INFO | [phase1]   1.71e-02s  0.00e+00d  [operations_research::sat::CpModelPresolver::ProcessAtMostOneAndLinear]
2025-09-15 03:51:30,450 | INFO | [phase1]   4.88e-02s  0.00e+00d  [operations_research::sat::CpModelPresolver::DetectDuplicateConstraints]
2025-09-15 03:51:30,517 | INFO | [phase1]   2.94e-02s  0.00e+00d  [operations_research::sat::CpModelPresolver::DetectDuplicateConstraintsWithDifferentEnforcements]
2025-09-15 03:51:30,559 | INFO | [phase1]   5.87e-03s  1.89e-05d  [operations_research::sat::CpModelPresolver::DetectDominatedLinearConstraints] #relevant_constraints=58
2025-09-15 03:51:30,569 | INFO | [phase1]   3.40e-03s  0.00e+00d  [operations_research::sat::CpModelPresolver::DetectDifferentVariables]
2025-09-15 03:51:30,624 | INFO | [phase1]   5.40e-02s  3.43e-04d  [operations_research::sat::CpModelPresolver::ProcessSetPPC] #relevant_constraints=4'264 #num_inclusions=2'981
2025-09-15 03:51:30,632 | INFO | [phase1]   5.84e-03s  0.00e+00d  [operations_research::sat::CpModelPresolver::FindAlmostIdenticalLinearConstraints]
2025-09-15 03:51:30,810 | INFO | [phase1]   1.69e-01s  1.11e-02d  [operations_research::sat::CpModelPresolver::FindBigAtMostOneAndLinearOverlap]
2025-09-15 03:51:30,855 | INFO | [phase1]   4.02e-02s  5.35e-03d  [operations_research::sat::CpModelPresolver::FindBigVerticalLinearOverlap]
2025-09-15 03:51:30,956 | INFO | [phase1]   8.86e-02s  5.15e-04d  [operations_research::sat::CpModelPresolver::FindBigHorizontalLinearOverlap] #blocks=9 #saved_nz=1'545 #linears=47
2025-09-15 03:51:31,081 | INFO | [phase1]   9.06e-03s  1.55e-05d  [operations_research::sat::CpModelPresolver::MergeClauses]
2025-09-15 03:51:31,448 | INFO | [phase1]   5.84e-02s  0.00e+00d  [DetectDominanceRelations]
2025-09-15 03:51:31,527 | INFO | [phase1]   2.98e-01s  0.00e+00d  [operations_research::sat::CpModelPresolver::PresolveToFixPoint] #num_loops=3 #num_dual_strengthening=2
2025-09-15 03:51:31,761 | INFO | [phase1]   2.71e-02s  0.00e+00d  [DetectDominanceRelations]
2025-09-15 03:51:31,782 | INFO | [phase1]   2.09e-01s  0.00e+00d  [operations_research::sat::CpModelPresolver::PresolveToFixPoint] #num_loops=1 #num_dual_strengthening=1
2025-09-15 03:51:31,812 | INFO | [phase1]   2.29e-02s  0.00e+00d  [operations_research::sat::CpModelPresolver::DetectDuplicateColumns]
2025-09-15 03:51:31,832 | INFO | [phase1]   1.72e-02s  0.00e+00d  [operations_research::sat::CpModelPresolver::DetectDuplicateConstraints]
2025-09-15 03:51:31,914 | INFO | [phase1] [SAT presolve] num removable Booleans: 57 / 4769
2025-09-15 03:51:31,926 | INFO | [phase1] [SAT presolve] num trivial clauses: 0
2025-09-15 03:51:31,931 | INFO | [phase1] [SAT presolve] [0s] clauses:2054 literals:5548 vars:1949 one_side_vars:723 simple_definition:599 singleton_clauses:0
2025-09-15 03:51:31,946 | INFO | [phase1] [SAT presolve] [0.0317101s] clauses:2016 literals:5396 vars:1949 one_side_vars:723 simple_definition:637 singleton_clauses:0
2025-09-15 03:51:31,967 | INFO | [phase1] [SAT presolve] [0.0519159s] clauses:1902 literals:5168 vars:1892 one_side_vars:723 simple_definition:618 singleton_clauses:0
2025-09-15 03:51:33,866 | INFO | [phase1]   3.23e-01s  0.00e+00d  [operations_research::sat::CpModelPresolver::DetectDuplicateConstraintsWithDifferentEnforcements]
2025-09-15 03:51:34,034 | INFO | [phase1]   2.03e+00s  2.09e-02d  [operations_research::sat::CpModelPresolver::Probe] #probed=13'660 #new_bounds=1'653 #new_binary_clauses=1'720
2025-09-15 03:51:34,199 | INFO | [phase1]   3.15e-02s  2.64e-03d  [MaxClique]
2025-09-15 03:51:34,653 | INFO | [phase1]   2.40e-02s  0.00e+00d  [DetectDominanceRelations]
2025-09-15 03:51:34,726 | INFO | [phase1]   4.02e-01s  0.00e+00d  [operations_research::sat::CpModelPresolver::PresolveToFixPoint] #num_loops=2 #num_dual_strengthening=1
2025-09-15 03:51:34,886 | INFO | [phase1]   7.10e-02s  0.00e+00d  [operations_research::sat::CpModelPresolver::ProcessAtMostOneAndLinear]
2025-09-15 03:51:35,006 | INFO | [phase1]   4.42e-02s  0.00e+00d  [operations_research::sat::CpModelPresolver::DetectDuplicateConstraints]
2025-09-15 03:51:35,149 | INFO | [phase1]   5.33e-02s  0.00e+00d  [operations_research::sat::CpModelPresolver::DetectDuplicateConstraintsWithDifferentEnforcements]
2025-09-15 03:51:35,174 | INFO | [phase1]   9.64e-03s  1.26e-05d  [operations_research::sat::CpModelPresolver::DetectDominatedLinearConstraints] #relevant_constraints=67
2025-09-15 03:51:35,190 | INFO | [phase1]   8.53e-03s  0.00e+00d  [operations_research::sat::CpModelPresolver::DetectDifferentVariables]
2025-09-15 03:51:35,364 | INFO | [phase1]   8.52e-02s  2.49e-04d  [operations_research::sat::CpModelPresolver::ProcessSetPPC] #relevant_constraints=3'770 #num_inclusions=2'277
2025-09-15 03:51:35,408 | INFO | [phase1]   8.12e-03s  0.00e+00d  [operations_research::sat::CpModelPresolver::FindAlmostIdenticalLinearConstraints]
2025-09-15 03:51:35,643 | INFO | [phase1]   1.67e-01s  8.15e-03d  [operations_research::sat::CpModelPresolver::FindBigAtMostOneAndLinearOverlap]
2025-09-15 03:51:35,674 | INFO | [phase1]   2.74e-02s  3.86e-03d  [operations_research::sat::CpModelPresolver::FindBigVerticalLinearOverlap]
2025-09-15 03:51:35,713 | INFO | [phase1]   1.33e-02s  6.80e-04d  [operations_research::sat::CpModelPresolver::FindBigHorizontalLinearOverlap] #linears=38
2025-09-15 03:51:35,748 | INFO | [phase1]   1.08e-02s  1.44e-05d  [operations_research::sat::CpModelPresolver::MergeClauses]
2025-09-15 03:51:36,033 | INFO | [phase1]   2.56e-02s  0.00e+00d  [DetectDominanceRelations]
2025-09-15 03:51:36,143 | INFO | [phase1]   2.76e-01s  0.00e+00d  [operations_research::sat::CpModelPresolver::PresolveToFixPoint] #num_loops=1 #num_dual_strengthening=1
2025-09-15 03:51:36,315 | INFO | [phase1]   8.90e-02s  0.00e+00d  [operations_research::sat::CpModelPresolver::ExpandObjective] #entries=24'030 #tight_variables=3'244 #tight_constraints=418 #expands=285
2025-09-15 03:51:36,693 | INFO | [phase1] 
2025-09-15 03:51:36,778 | INFO | [phase1] Presolve summary:
2025-09-15 03:51:36,863 | INFO | [phase1]   - 62 affine relations were detected.
2025-09-15 03:51:36,970 | INFO | [phase1]   - rule 'TODO dual: only one blocking constraint?' was applied 9'124 times.
2025-09-15 03:51:36,990 | INFO | [phase1]   - rule 'TODO dual: only one unspecified blocking constraint?' was applied 240 times.
2025-09-15 03:51:36,997 | INFO | [phase1]   - rule 'TODO duplicate: duplicate columns in Boolean constraints' was applied 4 times.
2025-09-15 03:51:37,003 | INFO | [phase1]   - rule 'TODO linear2: contains a Boolean.' was applied 9'402 times.
2025-09-15 03:51:37,005 | INFO | [phase1]   - rule 'affine: new relation' was applied 62 times.
2025-09-15 03:51:37,008 | INFO | [phase1]   - rule 'at_most_one: empty or all false' was applied 5'377 times.
2025-09-15 03:51:37,044 | INFO | [phase1]   - rule 'at_most_one: removed literals' was applied 22'303 times.
2025-09-15 03:51:37,047 | INFO | [phase1]   - rule 'at_most_one: size one' was applied 16'926 times.
2025-09-15 03:51:37,057 | INFO | [phase1]   - rule 'at_most_one: transformed into max clique.' was applied 1 time.
2025-09-15 03:51:37,071 | INFO | [phase1]   - rule 'bool_and: x => x' was applied 19 times.
2025-09-15 03:51:37,077 | INFO | [phase1]   - rule 'bool_or: implications' was applied 4'701 times.
2025-09-15 03:51:37,081 | INFO | [phase1]   - rule 'bool_or: removed enforcement literal' was applied 76 times.
2025-09-15 03:51:37,106 | INFO | [phase1]   - rule 'deductions: 1824 stored' was applied 1 time.
2025-09-15 03:51:37,113 | INFO | [phase1]   - rule 'dual: fix variable' was applied 8 times.
2025-09-15 03:51:37,122 | INFO | [phase1]   - rule 'dual: reduced domain' was applied 39 times.
2025-09-15 03:51:37,140 | INFO | [phase1]   - rule 'duplicate: removed constraint' was applied 403 times.
2025-09-15 03:51:37,158 | INFO | [phase1]   - rule 'exactly_one: removed literals' was applied 308 times.
2025-09-15 03:51:37,160 | INFO | [phase1]   - rule 'exactly_one: singleton' was applied 308 times.
2025-09-15 03:51:37,162 | INFO | [phase1]   - rule 'int_prod: boolean affine term' was applied 38 times.
2025-09-15 03:51:37,190 | INFO | [phase1]   - rule 'int_square: reduced target domain.' was applied 589 times.
2025-09-15 03:51:37,198 | INFO | [phase1]   - rule 'lin_max: affine_max target domain reduced' was applied 19 times.
2025-09-15 03:51:37,229 | INFO | [phase1]   - rule 'lin_max: fixed affine_max target' was applied 8 times.
2025-09-15 03:51:37,254 | INFO | [phase1]   - rule 'lin_max: unused affine target' was applied 8 times.
2025-09-15 03:51:37,265 | INFO | [phase1]   - rule 'linear matrix: common horizontal rectangle' was applied 9 times.
2025-09-15 03:51:37,272 | INFO | [phase1]   - rule 'linear1: x in domain' was applied 2'327 times.
2025-09-15 03:51:37,274 | INFO | [phase1]   - rule 'linear: always true' was applied 2'341 times.
2025-09-15 03:51:37,291 | INFO | [phase1]   - rule 'linear: enforcement literal in expression' was applied 57 times.
2025-09-15 03:51:37,305 | INFO | [phase1]   - rule 'linear: fixed or dup variables' was applied 3'268 times.
2025-09-15 03:51:37,313 | INFO | [phase1]   - rule 'linear: negative clause' was applied 4'701 times.
2025-09-15 03:51:37,322 | INFO | [phase1]   - rule 'linear: positive clause' was applied 1'166 times.
2025-09-15 03:51:37,326 | INFO | [phase1]   - rule 'linear: positive equal one' was applied 308 times.
2025-09-15 03:51:37,328 | INFO | [phase1]   - rule 'linear: reduced variable domains' was applied 19 times.
2025-09-15 03:51:37,344 | INFO | [phase1]   - rule 'linear: remapped using affine relations' was applied 108 times.
2025-09-15 03:51:37,347 | INFO | [phase1]   - rule 'linear: singleton column' was applied 19 times.
2025-09-15 03:51:37,352 | INFO | [phase1]   - rule 'linear: small Boolean expression' was applied 38 times.
2025-09-15 03:51:37,356 | INFO | [phase1]   - rule 'linear: variable substitution 0' was applied 1 time.
2025-09-15 03:51:37,361 | INFO | [phase1]   - rule 'linear: variable substitution 1' was applied 17 times.
2025-09-15 03:51:37,371 | INFO | [phase1]   - rule 'objective: expanded via tight equality' was applied 285 times.
2025-09-15 03:51:37,377 | INFO | [phase1]   - rule 'presolve: 2363 unused variables removed.' was applied 1 time.
2025-09-15 03:51:37,379 | INFO | [phase1]   - rule 'presolve: iteration' was applied 2 times.
2025-09-15 03:51:37,384 | INFO | [phase1]   - rule 'setppc: bool_or in at_most_one.' was applied 409 times.
2025-09-15 03:51:37,389 | INFO | [phase1]   - rule 'variables: both boolean and its negation fix the same variable' was applied 19 times.
2025-09-15 03:51:37,394 | INFO | [phase1]   - rule 'variables: detect half reified value encoding' was applied 1'197 times.
2025-09-15 03:51:37,597 | INFO | [phase1] 
2025-09-15 03:51:37,743 | INFO | [phase1] Presolved optimization model '': (model_fingerprint: 0xba486c6edd337a04)
#Variables: 7'051 (#bools: 868 #ints: 39 in objective) (5'452 primary variables)
  - 4'712 Booleans in [0,1]
  - 102 different domains in [-20,29791] with a largest complexity of 31.
#kAtMostOne: 1'440 (#literals: 8'849)
#kBoolAnd: 1'145 (#enforced: 1'145) (#literals: 2'290)
#kBoolOr: 757 (#literals: 2'878)
#kExactlyOne: 409 (#literals: 3'235)
#kIntProd: 1'140
#kLinMax: 22 (#expressions: 363)
#kLinear1: 1'729 (#enforced: 1'729 #multi: 589)
#kLinear2: 1'150 (#enforced: 1'121 #multi: 551)
#kLinearN: 38 (#terms: 4'154)
2025-09-15 03:51:37,845 | INFO | [phase1] 
2025-09-15 03:51:38,010 | INFO | [phase1] Preloading model.
2025-09-15 03:51:38,129 | INFO | [phase1] #Bound  14.15s best:inf   next:[-11060,8605] initial_domain
2025-09-15 03:51:38,435 | INFO | [phase1] #Model  14.45s var:7051/7051 constraints:7830/7830
2025-09-15 03:51:38,560 | INFO | [phase1] 
2025-09-15 03:51:38,574 | INFO | [phase1] Starting search at 14.59s with 8 workers.
2025-09-15 03:51:38,591 | INFO | [phase1] 6 full problem subsolvers: [core, default_lp, max_lp, no_lp, quick_restart, reduced_costs]
2025-09-15 03:51:38,593 | INFO | [phase1] 2 first solution subsolvers: [fj, fs_random_no_lp]
2025-09-15 03:51:38,598 | INFO | [phase1] 9 interleaved subsolvers: [feasibility_pump, graph_arc_lns, graph_cst_lns, graph_dec_lns, graph_var_lns, ls, rins/rens, rnd_cst_lns, rnd_var_lns]
2025-09-15 03:51:38,602 | INFO | [phase1] 3 helper subsolvers: [neighborhood_helper, synchronization_agent, update_gap_integral]
2025-09-15 03:51:38,605 | INFO | [phase1] 
2025-09-15 03:51:39,591 | INFO | [phase1] #1      15.61s best:6323  next:[-11060,6322] fj_restart(batch:1 lin{mvs:15 evals:279} gen{mvs:11 evals:284} #w_updates:1 #perturb:0)
2025-09-15 03:51:39,807 | INFO | [phase1] #Bound  15.83s best:6323  next:[-1940,6322] default_lp (initial_propagation)
2025-09-15 03:51:39,991 | INFO | [phase1] #Bound  16.01s best:6323  next:[-1931,6322] default_lp
2025-09-15 03:51:40,229 | INFO | [phase1] #Bound  16.25s best:6323  next:[-1769,6322] default_lp
2025-09-15 03:51:40,475 | INFO | [phase1] #Bound  16.49s best:6323  next:[-1462,6322] default_lp
2025-09-15 03:51:40,664 | INFO | [phase1] #2      16.68s best:6201  next:[-1462,6200] rnd_var_lns (d=5.00e-01 s=9 t=0.10 p=0.00 stall=0 h=base) [hint]
2025-09-15 03:51:40,968 | INFO | [phase1] #Bound  16.98s best:6201  next:[-1001,6200] default_lp
2025-09-15 03:51:41,153 | INFO | [phase1] #Bound  17.17s best:6201  next:[-555,6200] max_lp
2025-09-15 03:51:41,223 | INFO | [phase1] #3      17.24s best:5983  next:[-555,5982] rnd_cst_lns (d=5.00e-01 s=10 t=0.10 p=0.00 stall=0 h=base)
2025-09-15 03:51:41,438 | INFO | [phase1] #Bound  17.46s best:5983  next:[-337,5982] default_lp
2025-09-15 03:51:43,087 | INFO | [phase1] #Bound  19.11s best:5983  next:[-220,5982] quick_restart
2025-09-15 03:51:43,698 | INFO | [phase1] #Bound  19.72s best:5983  next:[0,5982]   max_lp
2025-09-15 03:51:43,759 | INFO | [phase1] #4      19.78s best:5923  next:[0,5922]   graph_cst_lns (d=5.00e-01 s=13 t=0.10 p=0.00 stall=0 h=base)
2025-09-15 03:51:44,473 | INFO | [phase1] #5      20.49s best:1479  next:[0,1478]   no_lp
2025-09-15 03:51:44,533 | INFO | [phase1] #6      20.55s best:1467  next:[0,1466]   no_lp
2025-09-15 03:51:59,388 | INFO | [phase1] #7      35.41s best:1466  next:[0,1465]   ls_restart_decay(batch:1 lin{mvs:13 evals:2'154} gen{mvs:80 evals:64} #w_updates:39 #perturb:0)
2025-09-15 03:52:06,067 | INFO | [phase1] #8      42.08s best:531   next:[0,530]    rins_lp_lns (d=5.00e-01 s=15 t=0.10 p=0.00 stall=0 h=base)
2025-09-15 03:52:07,197 | INFO | [phase1] #9      43.21s best:511   next:[0,510]    ls_restart_decay_compound(batch:1 lin{mvs:0 evals:69'802} gen{mvs:1'057 evals:1'204} comp{mvs:73 btracks:492} #w_updates:16 #perturb:0)
